; aio-pika :: corpus-study/repo_src/aio-pika/aio_pika/robust_channel.py :: LOCK 'RobustChannel.__restore_lock' :: structured encoding (verdict: unsat)
; Generated by snf-pipeline (encoder.py) -- run with any
; SMT-LIB2-compliant solver, e.g. `z3 aio-pika__corpus-study_repo_src_aio-pika_aio_pika_robust_channel.py__RobustChannel.__restore_lock__structured.smt2`
; benchmark generated from python API
(set-info :status unknown)
(declare-fun lorder_0 () Int)
(assert
 (>= lorder_0 1))
(assert
 (<= lorder_0 1))
(assert
 (and true))
(assert
 false)
(check-sat)
